60
2 0 310
2 1 63
3 0 17
3 1 124
4 0 155
4 1 314
4 2 76
4 3 271
5 0 145
5 1 9
5 2 252
5 3 240
5 4 268
6 0 257
6 1 101
6 2 122
6 3 173
6 4 287
6 5 310
7 0 237
7 1 24
7 3 118
7 4 233
7 5 40
7 6 53
8 0 304
8 1 216
8 2 133
8 3 312
8 4 310
8 5 144
8 6 67
8 7 133
9 0 293
9 1 135
9 2 110
9 3 33
9 4 163
9 5 180
9 6 63
9 7 264
9 8 311
10 0 267
10 1 230
10 2 81
10 3 53
10 4 194
10 5 126
10 6 129
10 8 29
10 9 91
11 0 197
11 1 240
11 2 72
11 3 39
11 4 70
11 5 57
11 6 161
11 7 109
11 8 214
11 9 206
11 10 293
12 0 186
12 1 286
12 2 219
12 5 123
12 7 81
12 9 116
12 10 221
12 11 212
13 0 286
13 1 92
13 2 236
13 3 228
13 4 301
13 5 242
13 6 140
13 7 283
13 8 120
13 9 90
13 10 148
13 12 3
14 0 150
14 1 74
14 2 299
14 3 281
14 4 150
14 5 185
14 6 125
14 7 60
14 8 72
14 9 75
14 10 263
14 11 191
14 12 273
14 13 134
15 0 186
15 1 215
15 2 19
15 3 74
15 4 280
15 5 312
15 6 46
15 7 65
15 8 217
15 9 195
15 10 58
15 12 103
15 14 270
16 0 109
16 2 117
16 3 305
16 4 255
16 5 111
16 6 268
16 7 160
16 8 159
16 9 172
16 10 125
16 11 83
16 12 278
16 13 28
16 14 289
16 15 245
17 0 241
17 4 150
17 5 218
17 6 82
17 7 282
17 8 242
17 9 124
17 10 83
17 11 192
17 12 185
17 13 227
17 14 203
17 15 165
17 16 197
18 0 291
18 1 310
18 2 24
18 3 313
18 4 130
18 5 201
18 6 154
18 7 52
18 8 253
18 9 32
18 10 129
18 11 138
18 12 172
18 13 148
18 14 263
18 15 291
18 16 6
18 17 8
19 0 70
19 1 2
19 2 243
19 4 149
19 5 228
19 6 51
19 7 42
19 8 271
19 9 78
19 10 172
19 11 164
19 12 245
19 13 101
19 14 224
19 15 161
19 16 26
19 17 116
19 18 286
20 0 93
20 1 216
20 2 241
20 3 102
20 4 236
20 5 289
20 6 45
20 7 274
20 8 311
20 9 102
20 10 58
20 12 108
20 13 205
20 14 208
20 16 315
20 17 202
20 18 318
20 19 177
21 0 282
21 1 269
21 2 208
21 3 261
21 4 183
21 5 239
21 6 236
21 7 4
21 8 52
21 9 37
21 10 66
21 11 316
21 12 176
21 14 288
21 15 23
21 16 294
21 17 156
21 18 70
21 19 86
21 20 103
22 0 206
22 1 288
22 2 222
22 3 21
22 4 254
22 5 83
22 6 236
22 7 138
22 8 215
22 9 175
22 10 181
22 11 88
22 12 166
22 13 130
22 14 9
22 15 239
22 16 89
22 17 46
22 18 191
22 19 274
22 20 178
22 21 237
23 1 72
23 2 34
23 3 226
23 4 62
23 5 157
23 6 94
23 7 301
23 8 109
23 9 316
23 10 305
23 11 93
23 12 211
23 13 305
23 15 80
23 16 130
23 17 150
23 18 148
23 19 25
23 20 262
23 21 120
23 22 232
24 0 241
24 1 271
24 2 32
24 3 248
24 6 202
24 7 130
24 8 31
24 9 41
24 10 11
24 11 152
24 13 115
24 14 268
24 15 164
24 16 73
24 17 319
24 19 5
24 20 260
24 21 97
24 22 254
25 0 163
25 1 297
25 2 1
25 3 181
25 4 255
25 5 29
25 6 133
25 7 217
25 8 267
25 9 135
25 10 120
25 11 54
25 12 145
25 13 87
25 14 194
25 15 242
25 16 190
25 17 298
25 19 104
25 20 309
25 21 196
25 22 141
25 23 169
25 24 60
26 0 163
26 1 319
26 2 228
26 3 195
26 4 132
26 5 223
26 7 132
26 8 310
26 10 116
26 11 144
26 12 193
26 13 142
26 14 13
26 15 157
26 16 81
26 17 205
26 18 283
26 19 309
26 20 18
26 21 227
26 22 182
26 23 118
26 24 231
26 25 262
27 0 169
27 1 68
27 2 284
27 3 129
27 4 207
27 5 210
27 6 152
27 7 217
27 8 60
27 9 115
27 10 155
27 11 56
27 12 27
27 13 300
27 14 273
27 15 100
27 17 71
27 18 57
27 19 270
27 20 133
27 22 208
27 24 233
27 25 271
28 0 145
28 1 190
28 2 319
28 3 250
28 4 185
28 5 125
28 6 93
28 7 108
28 8 135
28 9 243
28 10 46
28 11 301
28 12 260
28 13 153
28 14 263
28 15 186
28 16 283
28 17 50
28 18 207
28 19 271
28 20 228
28 21 118
28 23 110
28 24 55
28 25 239
28 26 82
28 27 58
29 0 103
29 1 10
29 2 191
29 3 119
29 5 93
29 7 58
29 8 227
29 9 148
29 10 91
29 11 58
29 12 307
29 13 64
29 14 275
29 15 79
29 16 320
29 17 201
29 18 81
29 19 141
29 20 106
29 21 118
29 22 64
29 23 153
29 24 238
29 25 174
29 26 225
29 27 194
29 28 74
30 0 142
30 2 43
30 3 252
30 4 62
30 6 183
30 7 55
30 8 320
30 9 6
30 10 250
30 11 73
30 12 68
30 13 78
30 14 151
30 15 246
30 16 9
30 17 200
30 18 106
30 19 126
30 20 229
30 21 128
30 22 146
30 24 309
30 25 22
30 26 43
30 27 183
30 28 264
30 29 176
31 0 30
31 1 191
31 2 66
31 3 229
31 4 297
31 5 125
31 6 7
31 7 297
31 9 221
31 11 196
31 12 105
31 14 107
31 15 73
31 16 235
31 18 272
31 19 3
31 20 149
31 21 202
31 22 245
31 23 3
31 24 107
31 25 68
31 26 43
31 27 184
31 28 274
31 29 202
31 30 93
32 0 148
32 1 169
32 3 65
32 4 97
32 5 234
32 6 282
32 7 198
32 8 46
32 9 29
32 10 109
32 11 71
32 12 221
32 13 130
32 14 36
32 15 189
32 16 88
32 17 75
32 18 179
32 19 127
32 20 264
32 21 210
32 22 195
32 23 298
32 24 111
32 25 100
32 26 248
32 27 46
32 28 194
32 29 184
32 30 238
32 31 205
33 0 43
33 1 242
33 2 130
33 3 59
33 6 201
33 7 86
33 8 197
33 9 288
33 10 245
33 11 208
33 12 92
33 15 129
33 16 45
33 17 111
33 18 133
33 19 262
33 20 53
33 21 169
33 22 54
33 24 312
33 25 137
33 26 193
33 27 301
33 28 207
33 29 188
33 30 87
33 31 196
33 32 50
34 0 297
34 1 50
34 2 3
34 3 119
34 4 106
34 5 295
34 6 77
34 7 225
34 8 121
34 10 136
34 11 285
34 12 140
34 13 197
34 14 224
34 16 57
34 17 106
34 18 315
34 19 284
34 20 149
34 21 53
34 22 224
34 23 113
34 24 131
34 26 92
34 27 32
34 28 114
34 29 192
34 31 241
34 32 296
34 33 301
35 0 30
35 1 309
35 2 287
35 3 75
35 4 186
35 5 166
35 6 144
35 7 30
35 8 220
35 9 8
35 10 172
35 11 31
35 12 254
35 13 142
35 14 89
35 15 45
35 16 166
35 17 2
35 18 259
35 20 18
35 21 33
35 23 57
35 24 29
35 25 112
35 27 219
35 28 197
35 29 238
35 30 282
35 31 255
35 32 303
35 33 68
35 34 34
36 0 141
36 1 127
36 2 214
36 3 280
36 5 90
36 6 152
36 7 42
36 8 122
36 9 39
36 10 113
36 11 307
36 12 128
36 13 98
36 14 96
36 16 267
36 17 203
36 20 134
36 21 207
36 22 24
36 23 264
36 24 163
36 25 299
36 26 259
36 27 105
36 28 128
36 29 254
36 30 197
36 31 199
36 32 127
36 34 80
36 35 167
37 0 36
37 1 98
37 2 24
37 3 72
37 4 142
37 5 310
37 6 257
37 7 302
37 8 26
37 9 18
37 10 317
37 11 146
37 12 290
37 13 240
37 14 120
37 15 125
37 16 240
37 17 192
37 20 204
37 21 284
37 22 91
37 23 254
37 24 29
37 25 282
37 26 114
37 27 148
37 28 269
37 29 61
37 30 255
37 31 96
37 32 125
37 34 79
37 35 19
37 36 215
38 0 178
38 2 301
38 3 4
38 4 160
38 5 1
38 6 251
38 7 73
38 10 78
38 11 314
38 12 36
38 13 246
38 14 98
38 15 228
38 16 218
38 18 235
38 19 88
38 20 187
38 21 153
38 22 134
38 23 185
38 24 243
38 25 133
38 26 55
38 27 299
38 28 127
38 30 144
38 31 72
38 32 121
38 33 46
38 34 11
38 35 5
38 36 139
39 0 81
39 1 294
39 2 263
39 3 188
39 4 60
39 5 94
39 6 26
39 7 216
39 8 18
39 9 185
39 10 264
39 11 142
39 12 311
39 13 218
39 14 49
39 15 120
39 17 25
39 18 141
39 19 2
39 20 222
39 21 191
39 22 40
39 23 278
39 25 141
39 26 318
39 27 280
39 28 304
39 29 177
39 31 81
39 32 202
39 33 55
39 34 67
39 35 201
39 36 125
39 37 280
39 38 72
40 1 205
40 4 173
40 5 238
40 6 277
40 7 183
40 8 317
40 9 176
40 10 176
40 11 135
40 12 298
40 13 61
40 14 244
40 15 214
40 17 40
40 18 84
40 20 262
40 21 291
40 22 238
40 24 292
40 25 131
40 26 163
40 27 214
40 28 216
40 29 9
40 30 72
40 31 12
40 32 190
40 33 142
40 34 165
40 35 196
40 36 270
40 37 134
40 38 11
40 39 279
41 0 139
41 1 114
41 2 13
41 3 226
41 4 117
41 5 131
41 6 267
41 7 275
41 8 130
41 9 280
41 10 102
41 11 257
41 12 95
41 13 313
41 14 48
41 15 258
41 17 211
41 18 91
41 19 200
41 20 25
41 21 297
41 22 39
41 24 120
41 25 129
41 26 93
41 28 196
41 29 293
41 30 74
41 31 281
41 33 299
41 34 121
41 35 246
41 36 69
41 37 188
41 38 33
41 39 256
41 40 133
42 0 83
42 1 263
42 2 51
42 3 276
42 5 110
42 6 136
42 7 2
42 8 290
42 9 181
42 11 228
42 14 190
42 16 261
42 17 57
42 18 61
42 19 220
42 20 239
42 21 250
42 22 145
42 23 284
42 24 217
42 25 48
42 26 143
42 27 32
42 28 234
42 29 214
42 30 189
42 31 310
42 33 168
42 34 64
42 35 218
42 36 92
42 37 66
42 38 10
42 39 266
42 40 229
42 41 30
43 0 307
43 1 184
43 2 54
43 3 77
43 4 130
43 5 210
43 6 274
43 7 260
43 8 13
43 9 172
43 10 174
43 11 229
43 12 99
43 13 30
43 14 147
43 15 11
43 16 76
43 17 124
43 18 279
43 19 206
43 20 35
43 21 175
43 22 211
43 23 224
43 24 25
43 26 210
43 27 192
43 28 165
43 29 249
43 31 103
43 32 77
43 35 186
43 36 208
43 37 24
43 38 28
43 39 99
43 40 73
43 41 226
43 42 41
44 0 285
44 1 161
44 2 272
44 3 313
44 4 165
44 6 242
44 7 33
44 8 60
44 9 299
44 11 2
44 12 70
44 13 179
44 14 98
44 15 57
44 16 67
44 17 104
44 18 70
44 19 297
44 20 82
44 21 2
44 22 292
44 23 305
44 24 265
44 26 84
44 28 218
44 30 9
44 31 37
44 33 37
44 34 301
44 35 173
44 36 201
44 37 220
44 38 227
44 39 211
44 40 291
44 41 66
44 42 298
44 43 182
45 0 311
45 1 106
45 2 308
45 3 109
45 4 57
45 5 64
45 6 51
45 8 206
45 9 311
45 10 57
45 11 104
45 12 105
45 14 105
45 15 156
45 16 97
45 17 289
45 18 216
45 19 180
45 21 88
45 22 189
45 23 135
45 24 26
45 25 275
45 26 168
45 27 307
45 28 313
45 29 183
45 30 145
45 31 298
45 32 48
45 33 87
45 34 81
45 35 250
45 36 163
45 37 184
45 38 138
45 39 21
45 40 256
45 41 9
45 42 176
45 43 21
45 44 216
46 0 316
46 1 62
46 2 271
46 3 132
46 4 304
46 5 8
46 6 55
46 7 180
46 8 142
46 10 190
46 12 311
46 14 179
46 15 11
46 21 37
46 22 240
46 23 157
46 24 134
46 25 141
46 26 241
46 27 8
46 28 302
46 29 316
46 30 282
46 31 247
46 32 62
46 33 317
46 34 125
46 35 278
46 36 211
46 37 291
46 38 215
46 39 316
46 40 236
46 41 194
46 42 101
46 43 249
46 44 223
47 0 15
47 1 169
47 2 18
47 4 91
47 5 233
47 6 113
47 7 277
47 8 42
47 9 298
47 10 52
47 11 237
47 12 128
47 13 187
47 14 183
47 15 217
47 16 100
47 17 90
47 18 92
47 19 307
47 20 45
47 21 277
47 22 162
47 23 221
47 24 256
47 25 62
47 27 258
47 28 19
47 29 281
47 30 300
47 31 41
47 32 225
47 33 34
47 34 297
47 35 149
47 36 106
47 37 281
47 38 107
47 39 171
47 40 226
47 41 106
47 42 312
47 43 200
47 44 245
47 45 137
47 46 284
48 0 311
48 1 254
48 2 276
48 3 317
48 4 147
48 6 16
48 7 196
48 8 286
48 9 232
48 10 99
48 11 72
48 12 280
48 13 275
48 14 304
48 15 151
48 16 212
48 17 101
48 18 82
48 19 259
48 20 249
48 21 251
48 22 140
48 23 167
48 24 23
48 26 123
48 27 285
48 28 120
48 29 282
48 30 46
48 31 166
48 32 268
48 33 259
48 34 108
48 35 239
48 36 60
48 37 238
48 38 206
48 39 170
48 40 216
48 41 144
48 42 122
48 43 122
48 44 235
48 46 241
48 47 103
49 1 121
49 3 39
49 4 316
49 5 86
49 6 31
49 9 269
49 10 136
49 11 255
49 12 245
49 13 129
49 14 5
49 15 215
49 16 95
49 17 265
49 18 205
49 19 47
49 20 179
49 21 184
49 22 207
49 23 267
49 24 264
49 25 265
49 26 295
49 27 26
49 28 138
49 29 292
49 30 35
49 31 224
49 33 269
49 34 98
49 35 4
49 36 241
49 37 151
49 38 311
49 40 178
49 41 56
49 42 163
49 43 193
49 44 205
49 45 150
49 46 193
49 47 13
49 48 301
50 0 6
50 2 105
50 3 248
50 4 275
50 5 185
50 6 185
50 8 7
50 9 78
50 10 154
50 11 304
50 12 206
50 13 41
50 14 27
50 15 120
50 16 268
50 17 77
50 18 128
50 19 223
50 21 127
50 22 311
50 23 196
50 24 170
50 25 103
50 26 264
50 27 7
50 28 197
50 29 281
50 30 159
50 31 254
50 32 137
50 33 231
50 34 152
50 35 265
50 36 133
50 37 98
50 38 194
50 39 270
50 40 187
50 41 64
50 42 263
50 43 293
50 44 177
50 45 284
50 46 266
50 47 151
50 48 218
50 49 251
51 0 289
51 1 31
51 2 15
51 3 169
51 4 7
51 5 274
51 7 174
51 8 76
51 9 184
51 11 278
51 12 25
51 13 159
51 14 15
51 15 53
51 16 160
51 17 227
51 18 53
51 20 91
51 21 105
51 22 69
51 23 165
51 26 319
51 27 130
51 29 36
51 31 310
51 33 4
51 34 177
51 35 103
51 37 198
51 38 157
51 39 175
51 40 123
51 41 70
51 42 305
51 43 137
51 44 175
51 46 12
51 48 298
51 50 143
52 1 236
52 2 106
52 3 98
52 4 248
52 5 86
52 6 183
52 7 269
52 8 214
52 9 301
52 10 142
52 11 102
52 12 214
52 13 54
52 15 109
52 16 68
52 17 77
52 18 141
52 19 156
52 20 33
52 21 187
52 22 59
52 23 5
52 24 27
52 25 31
52 26 21
52 29 235
52 30 46
52 32 182
52 33 124
52 34 11
52 36 15
52 37 196
52 38 195
52 39 283
52 40 309
52 41 182
52 42 144
52 43 55
52 44 261
52 45 15
52 46 259
52 48 98
52 49 278
52 50 156
52 51 92
53 0 273
53 1 283
53 2 252
53 3 124
53 4 242
53 5 213
53 7 13
53 8 58
53 9 85
53 10 153
53 11 281
53 12 315
53 13 275
53 14 306
53 15 215
53 16 138
53 17 177
53 19 269
53 20 261
53 21 107
53 23 122
53 24 234
53 25 288
53 26 187
53 27 53
53 28 318
53 29 161
53 30 209
53 31 189
53 32 99
53 33 292
53 34 243
53 36 139
53 37 220
53 40 66
53 41 285
53 42 300
53 43 139
53 44 230
53 45 104
53 46 197
53 47 44
53 48 49
53 49 271
53 50 67
53 51 127
53 52 293
54 0 314
54 2 241
54 3 217
54 4 149
54 5 301
54 6 102
54 7 231
54 8 283
54 9 231
54 10 190
54 11 119
54 12 254
54 13 211
54 14 14
54 15 53
54 17 69
54 18 165
54 19 125
54 20 67
54 21 46
54 22 180
54 23 210
54 24 265
54 25 138
54 27 145
54 28 67
54 29 204
54 30 33
54 31 314
54 33 87
54 34 48
54 35 303
54 36 235
54 37 60
54 38 76
54 39 310
54 40 258
54 41 310
54 42 250
54 43 211
54 44 10
54 45 223
54 46 157
54 47 282
54 48 71
54 49 230
54 50 96
54 51 115
54 52 133
54 53 84
55 0 318
55 1 124
55 2 303
55 3 82
55 4 305
55 5 130
55 6 83
55 7 12
55 8 185
55 9 272
55 11 209
55 13 49
55 14 270
55 15 60
55 16 42
55 17 82
55 18 198
55 19 19
55 20 266
55 21 314
55 22 251
55 23 91
55 24 67
55 25 163
55 27 259
55 29 129
55 30 280
55 31 75
55 32 14
55 33 70
55 34 301
55 35 242
55 36 285
55 37 285
55 38 291
55 39 278
55 40 198
55 41 215
55 42 280
55 43 262
55 44 78
55 45 68
55 46 89
55 47 91
55 48 263
55 49 3
55 50 93
55 51 216
55 52 290
55 53 113
55 54 121
56 0 62
56 1 130
56 2 183
56 4 175
56 6 299
56 7 169
56 8 16
56 9 25
56 10 33
56 11 196
56 12 131
56 13 241
56 15 294
56 16 110
56 17 68
56 18 52
56 22 201
56 23 241
56 24 21
56 25 320
56 27 114
56 28 42
56 29 10
56 30 74
56 31 49
56 32 83
56 33 272
56 34 154
56 35 112
56 36 292
56 37 144
56 38 213
56 39 311
56 40 290
56 41 128
56 42 225
56 43 15
56 44 228
56 45 207
56 46 168
56 47 207
56 48 154
56 49 113
56 50 7
56 51 268
56 52 257
56 53 204
56 54 147
57 0 102
57 1 184
57 2 120
57 3 276
57 5 99
57 7 304
57 9 72
57 10 189
57 11 259
57 12 144
57 13 184
57 14 158
57 15 27
57 16 141
57 17 90
57 18 56
57 19 283
57 20 223
57 21 277
57 22 6
57 23 212
57 24 255
57 25 164
57 26 304
57 27 282
57 28 84
57 29 3
57 30 226
57 31 105
57 32 86
57 33 27
57 34 59
57 35 140
57 37 133
57 38 278
57 39 184
57 40 261
57 41 289
57 43 264
57 44 206
57 45 306
57 46 59
57 47 189
57 48 270
57 49 148
57 50 42
57 51 129
57 53 20
57 54 89
57 55 129
57 56 212
58 0 129
58 1 277
58 2 272
58 3 69
58 5 68
58 7 166
58 8 30
58 9 170
58 10 220
58 11 279
58 12 123
58 13 40
58 14 34
58 15 100
58 16 146
58 17 14
58 18 136
58 19 176
58 20 201
58 21 316
58 22 284
58 23 98
58 24 274
58 25 39
58 26 224
58 28 181
58 29 258
58 30 32
58 31 48
58 32 112
58 33 59
58 34 71
58 35 36
58 36 139
58 37 208
58 38 42
58 39 64
58 41 191
58 42 283
58 43 70
58 44 94
58 46 44
58 47 73
58 48 279
58 50 63
58 51 315
58 52 112
58 53 147
58 54 265
58 55 163
58 56 236
58 57 143
59 0 135
59 1 28
59 2 126
59 3 72
59 4 9
59 5 54
59 6 16
59 8 179
59 9 224
59 10 129
59 11 206
59 12 285
59 14 212
59 15 158
59 16 86
59 17 96
59 18 205
59 19 80
59 20 9
59 21 88
59 22 190
59 23 258
59 24 171
59 25 213
59 26 287
59 27 265
59 28 282
59 29 168
59 30 203
59 31 208
59 32 171
59 33 94
59 34 13
59 35 193
59 36 298
59 37 256
59 38 215
59 39 108
59 40 80
59 41 222
59 42 151
59 44 310
59 45 138
59 46 65
59 47 108
59 48 167
59 49 123
59 50 110
59 51 248
59 52 256
59 53 66
59 54 91
59 55 16
59 58 71
